# Node Net
9921   1
9900   1
7500   1
9991   2
9970   2
9902   2
2400   3
2501   3
3300   3
7400   4
7000   4
 14   4
1801   5
201   5
 79   5
6201   6
5301   6
4901   6
 38   7
1300   7
 22   7
7401   8
 90   8
9917   8
6501   9
7701   9
1100  10
 69  10
4900  11
9995  11
